50	60290

375 275
486 386
229 129
935 835
1000 900
764 664
330 230
950 850
556 456
993 893
135 35
327 227
741 641
262 162
531 431
421 321
782 682
213 113
490 390
665 565
1004 904
796 696
771 671
919 819
1074 974
331 231
686 586
327 227
370 270
606 506
712 612
942 842
195 95
354 254
596 496
162 62
1015 915
321 221
471 371
271 171
1022 922
939 839
473 373
316 216
955 855
762 662
585 485
702 602
845 745
438 338
